60 300 198 74 187 83 10 174 171 14 40 7 123 117 92 65 195 41 7 61 95 186 114 111 190 199 25 52 66 162 131 176 73 80 1 59 163 162 32 85 127 23 91 49 139 182 65 85 174 72 145 21 9 58 131 198 57 156 1 74 69 83 